p cnf 20 10
a 1 2 0
e 3 4 5 6 7 8 0
a 9 10 0
e 11 0
a 12 13 0
e 14 0
a 15 16 17 0
e 18 0
a 19 0
e 20 0
12 9 6 -14 0
7 -13 16 -4 -19 0
-5 -9 -20 6 -2 0
-4 12 0
-13 -9 -11 -20 0
10 20 -12 1 4 0
-10 -8 -16 -13 20 0
-2 -10 -16 0
-2 -11 -17 -5 19 0
1 -5 15 0
